12 16 9 10
16 16 16 16 16 10 16 7 5 16 12 8 20 12 6 13 
5.43 3.27 8.06 8.81 15.34 7.47 12.3 10.76 9.63 10.39 4.33 9.45 14.81 1.28 0.7 13.38 
12.34 1.19 11.52 6.01 2.8 6.45 9.26 2.91 4.39 14.16 7.34 12.25 14.88 6.78 11.12 9.3 
5.63 14.16 5.44 11.55 6.27 4.24 4.93 3.7 12.38 2.73 9.9 6.24 15.33 3.46 8.38 10.02 
7.01 9.9 3.93 7.34 11.9 9.22 11.9 14.63 13.24 15.59 10.62 10.34 7.55 1 7.75 15.97 
2.33 2.08 12.4 3.1 5.71 9.87 11.7 6.41 14.51 12.63 6.02 10.22 15.56 7.72 8.74 14.61 
0.33 9.09 3.82 4.48 4.12 12.63 2.48 0.14 12.71 12.76 12.89 8.84 3.91 10.7 10.39 12.6 
5.33 12.42 13.49 9.91 11.45 7.73 7.15 9.19 2.33 14.65 1.02 13.61 5.29 5.76 5.56 11.29 
4.78 4.44 13.36 12.96 0.82 0.98 4.23 3.62 8.44 14.39 9.08 15.36 7.98 10.81 6.96 11.05 
11.64 9.92 13.65 9.39 12.8 11.69 2.13 3.64 13.32 13.6 7.58 9.85 5.26 4.1 5.75 1.72 
8 8 8 8 8 8 8 8 8 8 8 8 8 8 8 8 
0.34 1.66 6.92 13.67 12.45 4.52 4.05 7.25 12.59 15.9 1.36 1.68 4.43 12.02 13.29 2.59 
10.4 8.86 3.7 5.08 0.92 2.73 3.3 9.64 7.62 4.05 4.58 7.85 7.84 6.18 6.86 1.51 
1 1 1 1 1 1 1 1 1 1 1 1 1 1 1 1 
1 1 1 1 1 1 1 1 1 1 1 1 1 1 1 1 
1 1 1 1 1 1 1 1 1 1 1 1 1 1 1 1 
1 1 1 1 1 1 1 1 1 1 1 1 1 1 1 1 
1 1 1 1 1 1 1 1 1 1 1 1 1 1 1 1 
1 1 1 1 1 1 1 1 1 1 1 1 1 1 1 1 
1 1 1 1 1 1 1 1 1 1 1 1 1 1 1 1 
1 1 1 1 1 1 1 1 1 1 1 1 1 1 1 1 
1 1 1 1 1 1 1 1 1 1 1 1 1 1 1 1 
1 1 1 1 1 1 1 1 1 1 1 1 1 1 1 1 
1 1 1 1 1 1 1 1 1 1 1 1 1 1 1 1 
1 1 1 1 1 1 1 1 1 1 1 1 1 1 1 1 
0.01 0.01 0.01 0.01 0.01 0.01 0.01 0.01 0.01 0.01 0.01 0.01 0.01 0.01 0.01 0.01 
0.02 0.02 0.02 0.02 0.02 0.02 0.02 0.02 0.02 0.02 0.02 0.02 0.02 0.02 0.02 0.02 
0.03 0.03 0.03 0.03 0.03 0.03 0.03 0.03 0.03 0.03 0.03 0.03 0.03 0.03 0.03 0.03 
0.04 0.04 0.04 0.04 0.04 0.04 0.04 0.04 0.04 0.04 0.04 0.04 0.04 0.04 0.04 0.04 
0.05 0.05 0.05 0.05 0.05 0.05 0.05 0.05 0.05 0.05 0.05 0.05 0.05 0.05 0.05 0.05 
0.06 0.06 0.06 0.06 0.06 0.06 0.06 0.06 0.06 0.06 0.06 0.06 0.06 0.06 0.06 0.06 
0.07 0.07 0.07 0.07 0.07 0.07 0.07 0.07 0.07 0.07 0.07 0.07 0.07 0.07 0.07 0.07 
0.08 0.08 0.08 0.08 0.08 0.08 0.08 0.08 0.08 0.08 0.08 0.08 0.08 0.08 0.08 0.08 
0.09 0.09 0.09 0.09 0.09 0.09 0.09 0.09 0.09 0.09 0.09 0.09 0.09 0.09 0.09 0.09 
0.1 0.1 0.1 0.1 0.1 0.1 0.1 0.1 0.1 0.1 0.1 0.1 0.1 0.1 0.1 0.1 
0.5 0.5 0.5 0.5 0.5 0.5 0.5 0.5 0.5 0.5 0.5 0.5 0.5 0.5 0.5 0.5 
1 1 1 1 1 1 1 1 1 1 1 1 1 1 1 1 
